
Gurobi 11.0.1 (win64) logging started Mon Mar 18 01:11:04 2024

Set parameter LogFile to value "res/logfile/piperout-08log.txt"
Gurobi Optimizer version 11.0.1 build v11.0.1rc0 (win64 - Windows 11.0 (22621.2))

CPU model: AMD Ryzen Threadripper PRO 5975WX 32-Cores, instruction set [SSE2|AVX|AVX2]
Thread count: 32 physical cores, 64 logical processors, using up to 10 threads

Optimize a model with 16410 rows, 10399 columns and 171282 nonzeros
Model fingerprint: 0xfe3f3e54
Variable types: 24 continuous, 10375 integer (10237 binary)
Coefficient statistics:
  Matrix range     [1e+00, 9e+03]
  Objective range  [1e+00, 1e+00]
  Bounds range     [1e+00, 5e+06]
  RHS range        [1e+00, 2e+04]
Presolve removed 11557 rows and 4894 columns
Presolve time: 0.16s
Presolved: 4853 rows, 5505 columns, 18953 nonzeros
Crushed 1392 out of 1834 user cuts to presolved model
Variable types: 0 continuous, 5505 integer (5414 binary)

Root relaxation: objective 1.077190e+05, 2972 iterations, 0.06 seconds (0.15 work units)

    Nodes    |    Current Node    |     Objective Bounds      |     Work
 Expl Unexpl |  Obj  Depth IntInf | Incumbent    BestBd   Gap | It/Node Time

     0     0 107719.000    0   42          - 107719.000      -     -    0s
     0     0 107719.000    0   44          - 107719.000      -     -    0s
     0     0 107719.000    0   46          - 107719.000      -     -    0s
     0     0 107719.000    0   48          - 107719.000      -     -    0s
     0     0 107751.000    0   38          - 107751.000      -     -    0s
     0     0 107751.000    0   36          - 107751.000      -     -    0s
     0     0 107751.000    0   36          - 107751.000      -     -    0s
     0     0 107751.000    0   36          - 107751.000      -     -    0s
     0     0 107751.000    0   36          - 107751.000      -     -    0s
     0     0 107751.000    0   36          - 107751.000      -     -    0s
     0     0 107751.000    0   36          - 107751.000      -     -    0s
H    0     0                    531573.00000 107751.000  79.7%     -    0s
H    0     0                    149163.00000 124991.000  16.2%     -    0s
     0     0 124991.000    0   61 149163.000 124991.000  16.2%     -    0s
     0     0 124991.000    0   62 149163.000 124991.000  16.2%     -    0s
     0     0 124991.000    0   62 149163.000 124991.000  16.2%     -    0s
     0     0 124991.000    0   62 149163.000 124991.000  16.2%     -    0s
     0     0 124991.000    0   62 149163.000 124991.000  16.2%     -    0s
     0     0 124991.000    0   62 149163.000 124991.000  16.2%     -    0s
     0     0 124991.000    0   62 149163.000 124991.000  16.2%     -    0s
     0     0 124991.000    0   62 149163.000 124991.000  16.2%     -    0s
     0     0 124991.000    0   62 149163.000 124991.000  16.2%     -    0s
     0     0 124991.000    0   62 149163.000 124991.000  16.2%     -    0s
     0     0 124991.000    0   62 149163.000 124991.000  16.2%     -    0s
H    0     0                    133665.00000 125023.000  6.47%     -    0s
     0     0 125055.000    0   27 133665.000 125055.000  6.44%     -    0s
     0     0 125055.000    0   26 133665.000 125055.000  6.44%     -    0s
     0     0 125055.000    0   26 133665.000 125055.000  6.44%     -    0s
     0     0 125055.000    0   26 133665.000 125055.000  6.44%     -    0s
     0     0 125055.000    0   64 133665.000 125055.000  6.44%     -    0s
     0     0 125055.000    0   47 133665.000 125055.000  6.44%     -    0s
     0     0 125055.000    0   47 133665.000 125055.000  6.44%     -    0s
     0     0 125055.000    0   47 133665.000 125055.000  6.44%     -    0s
     0     0 125055.000    0   47 133665.000 125055.000  6.44%     -    0s
     0     0 125055.000    0   47 133665.000 125055.000  6.44%     -    0s
     0     0 125055.000    0   47 133665.000 125055.000  6.44%     -    0s
H    0     0                    130221.00000 125055.000  3.97%     -    0s
H    0     0                    125055.00000 125055.000  0.00%     -    0s
     0     0 125055.000    0   47 125055.000 125055.000  0.00%     -    0s

Cutting planes:
  Learned: 3
  Gomory: 2
  Cover: 84
  Implied bound: 19
  Clique: 379
  MIR: 5
  StrongCG: 5
  Flow cover: 3
  GUB cover: 19
  RLT: 6
  Relax-and-lift: 28
  BQP: 1

Explored 1 nodes (4373 simplex iterations) in 0.86 seconds (0.70 work units)
Thread count was 10 (of 64 available processors)

Solution count 5: 125055 130221 133665 ... 531573

Optimal solution found (tolerance 1.00e-04)
Best objective 1.250550000000e+05, best bound 1.250550000000e+05, gap 0.0000%

User-callback calls 763, time in user-callback 0.00 sec
